NAME: instance_1871
TYPE: TSP
DIMENSION: 20
EDGE_WEIGHT_TYPE: EUC_2D
NODE_COORD_SECTION
0 13.14 35.75
1 37.62 2.00
2 53.75 8.14
3 13.56 94.16
4 96.49 8.45
5 91.34 22.11
6 60.75 66.19
7 56.93 60.40
8 57.97 60.02
9 32.79 4.10
10 83.07 4.02
11 64.43 9.18
12 66.09 13.77
13 46.95 1.99
14 91.74 98.06
15 5.43 70.67
16 31.21 86.78
17 43.38 59.98
18 3.14 28.34
19 42.53 11.82
EOF
